HFSDDW
20	4	2
0	22	1	2
0	48	1	75
0	20	1	78
0	71	1	86
0	66	1	11
0	12	1	86
0	13	1	65
0	29	1	35
0	4	1	31
0	21	1	16
0	78	1	92
0	59	1	3
0	8	1	22
0	3	1	1
0	99	1	24
0	63	1	86
0	96	1	64
0	60	1	18
0	79	1	73
0	79	1	73
LBCmax: 476
RELDUE
-1	324	7	7
-1	282	8	4
-1	203	5	3
-1	297	9	5
-1	245	1	2
-1	357	6	3
-1	389	5	5
-1	355	5	3
-1	411	7	1
-1	304	6	3
-1	180	4	3
-1	422	1	4
-1	258	1	6
-1	274	5	5
-1	231	3	3
-1	225	7	4
-1	262	1	8
-1	273	9	9
-1	336	6	8
-1	425	1	1
DDW
295	353
271	293
189	217
270	324
243	247
325	389
370	408
320	390
370	452
301	307
169	191
405	439
237	279
263	285
215	247
214	236
244	280
259	287
323	349
387	463
